(set-logic QF_S)
(declare-fun var0 () String)
(declare-fun var1 () String)
(declare-fun var2 () String)
(declare-fun var3 () String)
(declare-fun var4 () String)
(declare-fun var5 () String)
(declare-fun var6 () String)
(declare-fun var7 () String)
(declare-fun var8 () String)
(declare-fun var9 () String)
(declare-fun var10 () String)
(declare-fun var11 () String)
(declare-fun var12 () String)
(declare-fun var13 () String)
(declare-fun var14 () String)
(declare-fun var15 () String)
(declare-fun var16 () String)
(declare-fun var17 () String)
(declare-fun var18 () String)
(declare-fun var19 () String)
(declare-fun var20 () String)
(declare-fun var21 () String)
(declare-fun var22 () String)
(declare-fun var23 () String)
(declare-fun var24 () String)
(declare-fun var25 () String)
(declare-fun var26 () String)
(declare-fun var27 () String)
(declare-fun var28 () String)
(declare-fun var29 () String)
(declare-fun var30 () String)
(declare-fun var31 () String)
(declare-fun var32 () String)
(declare-fun var33 () String)
(declare-fun var34 () String)
(declare-fun var35 () String)
(declare-fun var36 () String)
(declare-fun var37 () String)
(declare-fun var38 () String)
(declare-fun var39 () String)
(declare-fun var40 () String)
(declare-fun var41 () String)
(declare-fun var42 () String)
(declare-fun var43 () String)
(declare-fun var44 () String)
(declare-fun var45 () String)
(declare-fun var46 () String)
(declare-fun var47 () String)
(declare-fun var48 () String)
(declare-fun var49 () String)
(declare-fun var50 () String)
(declare-fun var51 () String)
(declare-fun var52 () String)
(declare-fun var53 () String)
(declare-fun var54 () String)
(declare-fun var55 () String)
(declare-fun var56 () String)
(declare-fun var57 () String)
(declare-fun var58 () String)
(declare-fun var59 () String)
(declare-fun var60 () String)
(declare-fun var61 () String)
(declare-fun var62 () String)
(declare-fun var63 () String)
(declare-fun var64 () String)
(declare-fun var65 () String)
(declare-fun var66 () String)
(declare-fun var67 () String)
(declare-fun var68 () String)
(declare-fun var69 () String)
(declare-fun var70 () String)
(declare-fun var71 () String)
(declare-fun var72 () String)
(declare-fun var73 () String)
(declare-fun var74 () String)
(declare-fun var75 () String)
(declare-fun var76 () String)
(declare-fun var77 () String)
(declare-fun var78 () String)
(declare-fun var79 () String)
(declare-fun var80 () String)
(declare-fun var81 () String)
(declare-fun var82 () String)
(declare-fun var83 () String)
(declare-fun var84 () String)
(declare-fun var85 () String)
(declare-fun var86 () String)
(declare-fun var87 () String)
(declare-fun var88 () String)
(declare-fun var89 () String)
(declare-fun var90 () String)
(declare-fun var91 () String)
(declare-fun var92 () String)
(declare-fun var93 () String)
(declare-fun var94 () String)
(declare-fun var95 () String)
(declare-fun var96 () String)
(declare-fun var97 () String)
(declare-fun var98 () String)
(declare-fun var99 () String)
(declare-fun var100 () String)
(declare-fun var101 () String)
(declare-fun var102 () String)
(declare-fun var103 () String)
(declare-fun var104 () String)
(declare-fun var105 () String)
(declare-fun var106 () String)
(declare-fun var107 () String)
(declare-fun var108 () String)
(declare-fun var109 () String)
(declare-fun var110 () String)
(declare-fun var111 () String)
(declare-fun var112 () String)
(declare-fun var113 () String)
(declare-fun var114 () String)
(declare-fun var115 () String)
(declare-fun var116 () String)
(declare-fun var117 () String)
(declare-fun var118 () String)
(declare-fun var119 () String)
(assert (= 67 (Length var0)))
(assert (= 78 (Length var1)))
(assert (= 18 (Length var2)))
(assert (= 91 (Length var3)))
(assert (= 2 (Length var4)))
(assert (= 76 (Length var5)))
(assert (= 5 (Length var6)))
(assert (= 51 (Length var7)))
(assert (= 16 (Length var8)))
(assert (= 7 (Length var9)))
(assert (= 25 (Length var10)))
(assert (= 86 (Length var11)))
(assert (= 72 (Length var12)))
(assert (= 48 (Length var13)))
(assert (= 27 (Length var14)))
(assert (= 61 (Length var15)))
(assert (= 0 (Length var16)))
(assert (= 99 (Length var17)))
(assert (= 51 (Length var18)))
(assert (= 67 (Length var19)))
(assert (= 69 (Length var20)))
(assert (= 15 (Length var21)))
(assert (= 33 (Length var22)))
(assert (= 59 (Length var23)))
(assert (= 6 (Length var24)))
(assert (= 98 (Length var25)))
(assert (= 40 (Length var26)))
(assert (= 61 (Length var27)))
(assert (= 6 (Length var28)))
(assert (= 62 (Length var29)))
(assert (= 17 (Length var30)))
(assert (= 89 (Length var31)))
(assert (= 17 (Length var32)))
(assert (= 88 (Length var33)))
(assert (= 78 (Length var34)))
(assert (= 45 (Length var35)))
(assert (= 58 (Length var36)))
(assert (= 41 (Length var37)))
(assert (= 84 (Length var38)))
(assert (= 7 (Length var39)))
(assert (= 10 (Length var40)))
(assert (= 25 (Length var41)))
(assert (= 75 (Length var42)))
(assert (= 85 (Length var43)))
(assert (= 94 (Length var44)))
(assert (= 93 (Length var45)))
(assert (= 0 (Length var46)))
(assert (= 10 (Length var47)))
(assert (= 52 (Length var48)))
(assert (= 98 (Length var49)))
(assert (= 34 (Length var50)))
(assert (= 26 (Length var51)))
(assert (= 14 (Length var52)))
(assert (= 43 (Length var53)))
(assert (= 30 (Length var54)))
(assert (= 42 (Length var55)))
(assert (= 61 (Length var56)))
(assert (= 71 (Length var57)))
(assert (= 50 (Length var58)))
(assert (= 70 (Length var59)))
(assert (= 24 (Length var60)))
(assert (= 29 (Length var61)))
(assert (= 50 (Length var62)))
(assert (= 9 (Length var63)))
(assert (= 62 (Length var64)))
(assert (= 62 (Length var65)))
(assert (= 2 (Length var66)))
(assert (= 56 (Length var67)))
(assert (= 25 (Length var68)))
(assert (= 0 (Length var69)))
(assert (= 25 (Length var70)))
(assert (= 29 (Length var71)))
(assert (= 39 (Length var72)))
(assert (= 77 (Length var73)))
(assert (= 66 (Length var74)))
(assert (= 21 (Length var75)))
(assert (= 11 (Length var76)))
(assert (= 62 (Length var77)))
(assert (= 96 (Length var78)))
(assert (= 76 (Length var79)))
(assert (= 50 (Length var80)))
(assert (= 50 (Length var81)))
(assert (= 22 (Length var82)))
(assert (= 3 (Length var83)))
(assert (= 7 (Length var84)))
(assert (= 9 (Length var85)))
(assert (= 12 (Length var86)))
(assert (= 63 (Length var87)))
(assert (= 76 (Length var88)))
(assert (= 12 (Length var89)))
(assert (= 9 (Length var90)))
(assert (= 26 (Length var91)))
(assert (= 50 (Length var92)))
(assert (= 41 (Length var93)))
(assert (= 35 (Length var94)))
(assert (= 7 (Length var95)))
(assert (= 96 (Length var96)))
(assert (= 77 (Length var97)))
(assert (= 81 (Length var98)))
(assert (= 64 (Length var99)))
(assert (= 74 (Length var100)))
(assert (= 99 (Length var101)))
(assert (= 86 (Length var102)))
(assert (= 60 (Length var103)))
(assert (= 66 (Length var104)))
(assert (= 69 (Length var105)))
(assert (= 95 (Length var106)))
(assert (= 86 (Length var107)))
(assert (= 41 (Length var108)))
(assert (= 82 (Length var109)))
(assert (= 12 (Length var110)))
(assert (= 84 (Length var111)))
(assert (= 43 (Length var112)))
(assert (= 98 (Length var113)))
(assert (= 33 (Length var114)))
(assert (= 2 (Length var115)))
(assert (= 34 (Length var116)))
(assert (= 7 (Length var117)))
(assert (= 84 (Length var118)))
(assert (= 4 (Length var119)))
(assert (= 120 (Length (Concat var51 var44))))
(assert (= 91 (Length (Concat var0 var60))))
(assert (= 123 (Length (Concat var72 var118))))
(assert (= 148 (Length (Concat var23 var31))))
(assert (= 116 (Length (Concat var98 var94))))
(assert (= 160 (Length (Concat var113 var65))))
(assert (= 77 (Length (Concat var104 var76))))
(assert (= 111 (Length (Concat var78 var21))))
(assert (= 108 (Length (Concat var35 var87))))
(assert (= 111 (Length (Concat var56 var58))))
(assert (= 160 (Length (Concat var17 var27))))
(assert (= 160 (Length (Concat var34 var109))))
(check-sat)